VERTICES = 30
EDGES = 56
25 21
23 24
19 30
23 28
29 23
30 3
30 8
30 22
28 30
15 12
18 19
3 12
1 15
3 14
6 11
2 16
11 9
15 6
19 4
17 6
6 18
9 15
18 8
19 9
23 11
21 13
26 10
12 25
17 20
23 15
1 5
10 29
11 28
23 16
6 1
5 2
12 28
27 14
6 3
7 3
5 6
16 29
2 21
3 21
23 2
5 21
4 23
1 27
1 29
28 2
27 3
28 3
6 25
7 26
27 7
26 9
